(declare-fun bvlambda_1_ ()Bool         )
(declare-fun a77 () (Array (_ BitVec 1) (_ BitVec 2)))
(assert
(let (($e22 (_ bv2 2)))
(let (($e120         bvlambda_1_             ))
(let (($e121         $e120             ))
(let (($e122         $e121             ))
(let (($e123         $e122             ))
(let (($e124         $e123             ))
(let (($e125         $e124             ))
(let (($e126         $e125             ))
(let (($e128                                $e126 ))
(let (($e129              $e128 ))
(let (($e130                    (bvnot $e129) ))
(let (($e131                          $e130      ))
(let (($e136 (                     bvnot $e131 )))
(let (($e246 (store a77 true               $e22 )))
(let (($e394 (concat true true                  )))
(let (($e395                  $e136 ))
(let (($e396 (select $e246 (bvnot $e395))))
(
                     bvnot(bvult $e396 $e394)
                                                                                                                                                                                                                                                                                                                                                                               ))))                                                                                                                                                   )                                                                                                             )    )))) )))))))                                                                       )                     )
